NAME: cuum540.tsp
TYPE: TSP
COMMENT: User-generated TSP file
DIMENSION: 540
EDGE_WEIGHT_TYPE: EUC_2D
NODE_COORD_SECTION
1 274.0 63.0
2 14.0 77.0
3 515.0 435.0
4 224.0 329.0
5 10.0 411.0
6 402.0 306.0
7 443.0 382.0
8 149.0 295.0
9 487.0 183.0
10 195.0 287.0
11 230.0 89.0
12 367.0 130.0
13 43.0 29.0
14 59.0 282.0
15 347.0 164.0
16 139.0 410.0
17 285.0 451.0
18 3.0 109.0
19 480.0 9.0
20 433.0 163.0
21 114.0 331.0
22 492.0 137.0
23 362.0 368.0
24 290.0 332.0
25 87.0 213.0
26 77.0 503.0
27 515.0 330.0
28 34.0 300.0
29 429.0 190.0
30 47.0 490.0
31 128.0 336.0
32 114.0 18.0
33 301.0 29.0
34 179.0 516.0
35 538.0 535.0
36 332.0 372.0
37 434.0 415.0
38 271.0 118.0
39 360.0 300.0
40 134.0 186.0
41 445.0 62.0
42 282.0 470.0
43 326.0 169.0
44 48.0 506.0
45 184.0 455.0
46 170.0 307.0
47 335.0 379.0
48 436.0 54.0
49 17.0 488.0
50 245.0 262.0
51 433.0 432.0
52 495.0 211.0
53 269.0 304.0
54 244.0 8.0
55 460.0 303.0
56 60.0 308.0
57 70.0 39.0
58 23.0 109.0
59 287.0 96.0
60 20.0 155.0
61 87.0 358.0
62 454.0 185.0
63 427.0 396.0
64 19.0 332.0
65 322.0 284.0
66 491.0 161.0
67 162.0 139.0
68 110.0 184.0
69 326.0 358.0
70 157.0 401.0
71 201.0 138.0
72 327.0 162.0
73 440.0 254.0
74 476.0 54.0
75 11.0 51.0
76 113.0 292.0
77 460.0 146.0
78 217.0 131.0
79 308.0 154.0
80 438.0 250.0
81 142.0 20.0
82 406.0 108.0
83 394.0 52.0
84 220.0 398.0
85 403.0 4.0
86 539.0 486.0
87 455.0 47.0
88 437.0 435.0
89 338.0 214.0
90 50.0 480.0
91 303.0 195.0
92 363.0 8.0
93 47.0 148.0
94 79.0 67.0
95 182.0 10.0
96 312.0 514.0
97 304.0 432.0
98 4.0 198.0
99 275.0 351.0
100 188.0 256.0
101 525.0 159.0
102 298.0 36.0
103 149.0 240.0
104 524.0 384.0
105 418.0 429.0
106 18.0 385.0
107 306.0 211.0
108 458.0 465.0
109 399.0 240.0
110 397.0 467.0
111 32.0 222.0
112 119.0 396.0
113 232.0 449.0
114 261.0 421.0
115 275.0 40.0
116 539.0 491.0
117 388.0 172.0
118 67.0 71.0
119 59.0 138.0
120 416.0 447.0
121 201.0 127.0
122 97.0 118.0
123 48.0 399.0
124 529.0 274.0
125 508.0 18.0
126 449.0 485.0
127 364.0 459.0
128 116.0 62.0
129 41.0 146.0
130 3.0 521.0
131 432.0 352.0
132 338.0 438.0
133 446.0 167.0
134 384.0 209.0
135 298.0 263.0
136 440.0 62.0
137 163.0 489.0
138 245.0 329.0
139 160.0 309.0
140 382.0 200.0
141 343.0 226.0
142 428.0 292.0
143 517.0 408.0
144 350.0 136.0
145 134.0 304.0
146 382.0 259.0
147 277.0 498.0
148 44.0 220.0
149 380.0 292.0
150 295.0 500.0
151 363.0 343.0
152 425.0 263.0
153 463.0 73.0
154 435.0 251.0
155 491.0 328.0
156 446.0 125.0
157 226.0 438.0
158 230.0 383.0
159 268.0 54.0
160 441.0 449.0
161 438.0 154.0
162 540.0 66.0
163 306.0 279.0
164 459.0 359.0
165 185.0 485.0
166 239.0 442.0
167 467.0 510.0
168 332.0 227.0
169 117.0 103.0
170 438.0 313.0
171 53.0 316.0
172 271.0 395.0
173 489.0 80.0
174 466.0 474.0
175 148.0 445.0
176 352.0 435.0
177 327.0 112.0
178 429.0 291.0
179 465.0 104.0
180 129.0 402.0
181 422.0 64.0
182 137.0 472.0
183 525.0 303.0
184 111.0 207.0
185 431.0 129.0
186 360.0 47.0
187 143.0 94.0
188 28.0 479.0
189 21.0 539.0
190 471.0 83.0
191 224.0 121.0
192 100.0 160.0
193 287.0 453.0
194 349.0 380.0
195 287.0 369.0
196 257.0 409.0
197 280.0 516.0
198 302.0 257.0
199 296.0 254.0
200 379.0 503.0
201 5.0 299.0
202 516.0 33.0
203 418.0 32.0
204 67.0 337.0
205 203.0 489.0
206 143.0 413.0
207 434.0 292.0
208 451.0 39.0
209 279.0 261.0
210 519.0 64.0
211 414.0 215.0
212 27.0 435.0
213 30.0 503.0
214 64.0 374.0
215 515.0 183.0
216 82.0 214.0
217 92.0 189.0
218 28.0 270.0
219 273.0 3.0
220 156.0 395.0
221 145.0 209.0
222 100.0 453.0
223 447.0 55.0
224 112.0 481.0
225 115.0 80.0
226 505.0 200.0
227 320.0 352.0
228 291.0 127.0
229 536.0 539.0
230 253.0 199.0
231 272.0 262.0
232 499.0 174.0
233 210.0 137.0
234 510.0 411.0
235 326.0 173.0
236 199.0 270.0
237 302.0 328.0
238 397.0 490.0
239 423.0 472.0
240 23.0 10.0
241 508.0 496.0
242 154.0 152.0
243 402.0 520.0
244 155.0 50.0
245 276.0 365.0
246 284.0 146.0
247 170.0 534.0
248 274.0 464.0
249 500.0 233.0
250 159.0 250.0
251 172.0 428.0
252 487.0 272.0
253 43.0 175.0
254 42.0 8.0
255 85.0 228.0
256 177.0 511.0
257 264.0 303.0
258 253.0 35.0
259 73.0 363.0
260 282.0 257.0
261 109.0 30.0
262 218.0 54.0
263 206.0 129.0
264 333.0 105.0
265 274.0 274.0
266 138.0 465.0
267 194.0 85.0
268 449.0 420.0
269 160.0 449.0
270 298.0 208.0
271 21.0 109.0
272 24.0 138.0
273 61.0 282.0
274 517.0 465.0
275 538.0 316.0
276 481.0 123.0
277 75.0 359.0
278 410.0 296.0
279 367.0 527.0
280 32.0 71.0
281 328.0 246.0
282 289.0 218.0
283 483.0 140.0
284 521.0 35.0
285 9.0 468.0
286 475.0 504.0
287 248.0 407.0
288 460.0 245.0
289 319.0 422.0
290 376.0 110.0
291 32.0 320.0
292 323.0 487.0
293 405.0 240.0
294 1.0 151.0
295 261.0 341.0
296 432.0 305.0
297 223.0 269.0
298 437.0 120.0
299 62.0 127.0
300 429.0 506.0
301 361.0 279.0
302 482.0 228.0
303 306.0 164.0
304 114.0 133.0
305 269.0 108.0
306 494.0 331.0
307 206.0 28.0
308 209.0 77.0
309 92.0 268.0
310 501.0 434.0
311 195.0 73.0
312 166.0 533.0
313 103.0 325.0
314 205.0 408.0
315 452.0 241.0
316 253.0 393.0
317 25.0 493.0
318 74.0 149.0
319 510.0 333.0
320 25.0 333.0
321 83.0 475.0
322 196.0 503.0
323 457.0 475.0
324 62.0 135.0
325 270.0 83.0
326 391.0 69.0
327 462.0 458.0
328 96.0 25.0
329 417.0 495.0
330 183.0 457.0
331 338.0 178.0
332 514.0 16.0
333 494.0 406.0
334 162.0 354.0
335 442.0 278.0
336 117.0 198.0
337 312.0 481.0
338 125.0 325.0
339 274.0 300.0
340 67.0 79.0
341 483.0 238.0
342 328.0 514.0
343 298.0 99.0
344 133.0 73.0
345 237.0 336.0
346 137.0 113.0
347 275.0 119.0
348 497.0 206.0
349 350.0 116.0
350 449.0 278.0
351 516.0 230.0
352 244.0 163.0
353 469.0 84.0
354 388.0 375.0
355 482.0 298.0
356 273.0 116.0
357 152.0 225.0
358 84.0 166.0
359 133.0 235.0
360 352.0 163.0
361 370.0 274.0
362 423.0 194.0
363 91.0 479.0
364 352.0 517.0
365 152.0 443.0
366 532.0 233.0
367 78.0 521.0
368 13.0 69.0
369 168.0 49.0
370 347.0 244.0
371 262.0 139.0
372 230.0 489.0
373 397.0 317.0
374 416.0 365.0
375 479.0 119.0
376 505.0 97.0
377 303.0 152.0
378 523.0 130.0
379 527.0 167.0
380 380.0 79.0
381 504.0 312.0
382 121.0 335.0
383 370.0 516.0
384 170.0 367.0
385 482.0 523.0
386 352.0 232.0
387 211.0 163.0
388 301.0 298.0
389 35.0 283.0
390 75.0 534.0
391 138.0 94.0
392 388.0 254.0
393 315.0 462.0
394 371.0 315.0
395 463.0 308.0
396 455.0 124.0
397 170.0 376.0
398 71.0 132.0
399 433.0 276.0
400 249.0 489.0
401 1.0 249.0
402 366.0 401.0
403 392.0 317.0
404 456.0 539.0
405 444.0 390.0
406 100.0 425.0
407 339.0 38.0
408 443.0 105.0
409 97.0 209.0
410 479.0 216.0
411 167.0 284.0
412 127.0 276.0
413 210.0 148.0
414 505.0 533.0
415 432.0 344.0
416 189.0 468.0
417 448.0 366.0
418 14.0 133.0
419 414.0 13.0
420 34.0 298.0
421 355.0 378.0
422 436.0 399.0
423 313.0 129.0
424 464.0 123.0
425 493.0 45.0
426 72.0 492.0
427 114.0 228.0
428 456.0 475.0
429 329.0 431.0
430 197.0 9.0
431 447.0 400.0
432 424.0 80.0
433 30.0 266.0
434 325.0 83.0
435 72.0 533.0
436 399.0 242.0
437 327.0 492.0
438 403.0 519.0
439 385.0 47.0
440 473.0 391.0
441 485.0 27.0
442 458.0 258.0
443 4.0 274.0
444 396.0 258.0
445 364.0 202.0
446 80.0 174.0
447 511.0 218.0
448 39.0 239.0
449 367.0 249.0
450 418.0 238.0
451 237.0 195.0
452 279.0 164.0
453 250.0 533.0
454 230.0 429.0
455 333.0 415.0
456 201.0 201.0
457 396.0 138.0
458 201.0 52.0
459 454.0 116.0
460 344.0 319.0
461 122.0 431.0
462 57.0 426.0
463 51.0 228.0
464 297.0 113.0
465 281.0 455.0
466 325.0 287.0
467 465.0 428.0
468 393.0 496.0
469 5.0 323.0
470 215.0 266.0
471 112.0 188.0
472 12.0 426.0
473 115.0 259.0
474 275.0 149.0
475 438.0 332.0
476 127.0 515.0
477 129.0 6.0
478 504.0 257.0
479 318.0 152.0
480 228.0 329.0
481 153.0 455.0
482 248.0 408.0
483 34.0 428.0
484 480.0 336.0
485 226.0 422.0
486 188.0 306.0
487 425.0 201.0
488 320.0 21.0
489 270.0 535.0
490 204.0 505.0
491 495.0 191.0
492 534.0 193.0
493 184.0 317.0
494 392.0 394.0
495 299.0 447.0
496 106.0 234.0
497 494.0 216.0
498 241.0 323.0
499 322.0 114.0
500 291.0 419.0
501 303.0 214.0
502 277.0 92.0
503 522.0 517.0
504 254.0 198.0
505 248.0 418.0
506 56.0 119.0
507 140.0 397.0
508 259.0 379.0
509 136.0 39.0
510 129.0 188.0
511 110.0 529.0
512 47.0 84.0
513 486.0 504.0
514 101.0 467.0
515 176.0 270.0
516 515.0 444.0
517 348.0 10.0
518 222.0 261.0
519 170.0 208.0
520 438.0 195.0
521 301.0 503.0
522 359.0 504.0
523 46.0 284.0
524 497.0 143.0
525 413.0 360.0
526 1.0 285.0
527 125.0 112.0
528 65.0 327.0
529 140.0 428.0
530 485.0 226.0
531 514.0 485.0
532 297.0 264.0
533 454.0 334.0
534 354.0 438.0
535 246.0 210.0
536 171.0 33.0
537 27.0 186.0
538 170.0 86.0
539 81.0 497.0
540 451.0 428.0
EOF





